(declare-const phi_sn Int)
(declare-const term_to_project_onto0_integralized Int)
(declare-const x Int)
(declare-const sn Int)
(declare-const phi_tmp___10 Int)
(declare-const |x'| Int)
(declare-const |sn'| Int)
(declare-const tmp___1 Int)
(declare-const term_to_project_onto1_integralized Int)
(declare-const term_to_project_onto_integralized Int)
(declare-const |tmp___1'| Int)
(declare-const phi_tmp___1 Int)
(assert (and (<= (- x) 0) (<= (- sn) 0)
               (or (and (<= (+ (- x) 10) 0) (= (+ (- phi_sn) sn) 0))
                     (and (<= (+ x -9) 0) (= (+ (- phi_sn) sn 2) 0)))
               (or (and (or (<= (+ phi_sn (* -2 x) -1) 0)
                              (<= (+ (- phi_sn) (* 2 x) 3) 0))
                          (or (and (or (<= (+ phi_sn 1) 0)
                                         (<= (+ (- phi_sn) 1) 0))
                                     (= (- phi_tmp___1) 0))
                                (and (= phi_sn 0) (= (+ (- phi_tmp___1) 1) 0)))
                          (= (+ (- phi_tmp___10) phi_tmp___1) 0))
                     (and (= (+ phi_sn (* -2 x) -2) 0)
                            (= (+ (- phi_tmp___10) 1) 0)))
               (or (<= (+ phi_tmp___10 1) 0) (<= (+ (- phi_tmp___10) 1) 0))
               (= (+ |tmp___1'| (- phi_tmp___10)) 0) (= (+ |x'| (- x) -1) 0)
               (= (+ |sn'| (- phi_sn)) 0)
               (= (+ term_to_project_onto1_integralized (- (+ |sn'| (- sn)))) 0)
               (= (+ term_to_project_onto0_integralized (- (+ |x'| (- x)))) 0)
               (= (+ term_to_project_onto_integralized
                       (- (+ |tmp___1'| (- tmp___1)))) 0)))